AdsorptionEnergy       
   1.00000000000000     
     10.16000    0.0000000000000000    0.0000000000000000
     0.0000000000000000    11.76000    0.0000000000000000
     0.0000000000000000    0.0000000000000000   15.0000000000000000
     40 1
Direct
   -0.00189   0.00000   0.00000
    0.16667   0.00000   0.00000
    0.33522   0.00000   0.00000
    0.08000   0.12500   0.00000
    0.25334   0.12500   0.00000
   -0.00189   0.25000   0.00000
    0.16667   0.25000   0.00000
    0.33522   0.25000   0.00000
    0.08000   0.37500   0.00000
    0.25334   0.37500   0.00000
   -0.00189   0.50000   0.00000
    0.16667   0.50000   0.00000
    0.33522   0.50000   0.00000
    0.08000   0.62500   0.00000
    0.25334   0.62500   0.00000
   -0.00189   0.75000   0.00000
    0.16667   0.75000   0.00000
    0.33522   0.75000   0.00000
    0.08000   0.87500   0.00000
    0.25334   0.87500   0.00000
    0.49811   0.00000   0.00000
    0.66667   0.00000   0.00000
    0.83522   0.00000   0.00000
    0.58000   0.12500   0.00000
    0.75334   0.12500   0.00000
    0.49811   0.25000   0.00000
    0.66667   0.25000   0.00000
    0.83522   0.25000   0.00000
    0.58000   0.37500   0.00000
    0.75334   0.37500   0.00000
    0.49811   0.50000   0.00000
    0.66667   0.50000   0.00000
    0.83522   0.50000   0.00000
    0.58000   0.62500   0.00000
    0.75334   0.62500   0.00000
    0.49811   0.75000   0.00000
    0.66667   0.75000   0.00000
    0.83522   0.75000   0.00000
    0.58000   0.87500   0.00000
    0.75334   0.87500   0.00000
    0.41667   0.12500   0.13333