MoleculeAdsorption                      
   1.00000000000000     
    10.1600000000000001    0.0000000000000000    0.0000000000000000
     0.0000000000000000   11.7599999999999998    0.0000000000000000
     0.0000000000000000    0.0000000000000000   15.0000000000000000
   C    H 
     1     4
Direct
 -0.0000033333067223 -0.0000081485688691  0.0000016343724635
  0.1078783525431835  0.0000021233512123 -0.0000023037155518
  0.9640362694232378  0.0516901542568534  0.0557096426078899
  0.9640383005238705  0.9126192026858725  0.0072423916490335
  0.9640404108164273  0.0356966682749309  0.9370486350861649
 
  0.00000000E+00  0.00000000E+00  0.00000000E+00
  0.00000000E+00  0.00000000E+00  0.00000000E+00
  0.00000000E+00  0.00000000E+00  0.00000000E+00
  0.00000000E+00  0.00000000E+00  0.00000000E+00
  0.00000000E+00  0.00000000E+00  0.00000000E+00
