MoleculeAdsorption                        
   1.00000000000000     
    10.1600000000000001    0.0000000000000000    0.0000000000000000
     0.0000000000000000   11.7599999999999998    0.0000000000000000
     0.0000000000000000    0.0000000000000000   15.0000000000000000
   1 4
Direct
 0.00000   0.00000   0.00000
 0.10919  -0.00000  -0.00000
 -0.03640   0.05232   0.05639
 -0.03640  -0.08845   0.00733
 -0.03640   0.03613  -0.06372


