AdsorptionEnergy                        
   1.00000000000000     
    10.1600000000000001    0.0000000000000000    0.0000000000000000
     0.0000000000000000   11.7599999999999998    0.0000000000000000
     0.0000000000000000    0.0000000000000000   15.0000000000000000
   B    Fe
    40     1
Direct
 -0.0026648971593866 -0.0009735993954585 -0.0205803192576621
  0.1564562399769436 -0.0017922347505372 -0.0004098721804311
  0.3224239213890626 -0.0060746354616307  0.0376807817809592
  0.0767414905537118  0.1250000000000000 -0.0142875612634511
  0.2387734158803430  0.1250000000000000  0.0278432780680319
 -0.0026648971593866  0.2509735993954585 -0.0205803192576621
  0.1564562399769436  0.2517922347505371 -0.0004098721804311
  0.3224239213890626  0.2560746354616306  0.0376807817809592
  0.0785875654850246  0.3759025764478389 -0.0080785885235920
  0.2492324037681212  0.3753194136610260  0.0091383085846402
  0.9975642343480472  0.5008624253594102 -0.0085878073872824
  0.1660421371755643  0.5014601950513232 -0.0016964156976533
  0.3349971000718708  0.4999908201838409  0.0030013934532719
  0.0804890699182133  0.6250000000000000 -0.0029653796250500
  0.2521613255555417  0.6250000000000000 -0.0015840462443399
  0.9975642343480472  0.7491375746405898 -0.0085878073872824
  0.1660421371755643  0.7485398049486768 -0.0016964156976533
  0.3349971000718708  0.7500091798161591  0.0030013934532719
  0.0785875654850246  0.8740974235521612 -0.0080785885235920
  0.2492324037681212  0.8746805863389745  0.0091383085846402
  0.5110016675658551 -0.0060890201879501  0.0379598681689988
  0.6769566376985631 -0.0018172304442193 -0.0001789440147969
  0.8360087184240185 -0.0009503288993894 -0.0204943690239334
  0.5945734824026638  0.1250000000000000  0.0280496689797361
  0.7565400431989684  0.1250000000000000 -0.0141769736762619
  0.5110016675658551  0.2560890201879499  0.0379598681689988
  0.6769566376985631  0.2518172304442194 -0.0001789440147969
  0.8360087184240185  0.2509503288993895 -0.0204943690239334
  0.5841646527650671  0.3753267376565282  0.0094089798921775
  0.7547337259980448  0.3759163376839038 -0.0079957176069525
  0.4983105966004044  0.4999892680831968  0.0031173142946273
  0.6672312095147510  0.5014801712395620 -0.0016192231444235
  0.8357291844006162  0.5008750237800627 -0.0085812826684909
  0.5811290628483048  0.6250000000000000 -0.0014628980031296
  0.7528135880962049  0.6250000000000000 -0.0028879749318492
  0.4983105966004044  0.7500107319168027  0.0031173142946273
  0.6672312095147510  0.7485198287604380 -0.0016192231444235
  0.8357291844006162  0.7491249762199373 -0.0085812826684909
  0.5841646527650671  0.8746732623434719  0.0094089798921775
  0.7547337259980448  0.8740836623160965 -0.0079957176069525
  0.4166183255009147  0.1250000000000000  0.0706336733574012
 
  0.00000000E+00  0.00000000E+00  0.00000000E+00
  0.00000000E+00  0.00000000E+00  0.00000000E+00
  0.00000000E+00  0.00000000E+00  0.00000000E+00
  0.00000000E+00  0.00000000E+00  0.00000000E+00
  0.00000000E+00  0.00000000E+00  0.00000000E+00
  0.00000000E+00  0.00000000E+00  0.00000000E+00
  0.00000000E+00  0.00000000E+00  0.00000000E+00
  0.00000000E+00  0.00000000E+00  0.00000000E+00
  0.00000000E+00  0.00000000E+00  0.00000000E+00
  0.00000000E+00  0.00000000E+00  0.00000000E+00
  0.00000000E+00  0.00000000E+00  0.00000000E+00
  0.00000000E+00  0.00000000E+00  0.00000000E+00
  0.00000000E+00  0.00000000E+00  0.00000000E+00
  0.00000000E+00  0.00000000E+00  0.00000000E+00
  0.00000000E+00  0.00000000E+00  0.00000000E+00
  0.00000000E+00  0.00000000E+00  0.00000000E+00
  0.00000000E+00  0.00000000E+00  0.00000000E+00
  0.00000000E+00  0.00000000E+00  0.00000000E+00
  0.00000000E+00  0.00000000E+00  0.00000000E+00
  0.00000000E+00  0.00000000E+00  0.00000000E+00
  0.00000000E+00  0.00000000E+00  0.00000000E+00
  0.00000000E+00  0.00000000E+00  0.00000000E+00
  0.00000000E+00  0.00000000E+00  0.00000000E+00
  0.00000000E+00  0.00000000E+00  0.00000000E+00
  0.00000000E+00  0.00000000E+00  0.00000000E+00
  0.00000000E+00  0.00000000E+00  0.00000000E+00
  0.00000000E+00  0.00000000E+00  0.00000000E+00
  0.00000000E+00  0.00000000E+00  0.00000000E+00
  0.00000000E+00  0.00000000E+00  0.00000000E+00
  0.00000000E+00  0.00000000E+00  0.00000000E+00
  0.00000000E+00  0.00000000E+00  0.00000000E+00
  0.00000000E+00  0.00000000E+00  0.00000000E+00
  0.00000000E+00  0.00000000E+00  0.00000000E+00
  0.00000000E+00  0.00000000E+00  0.00000000E+00
  0.00000000E+00  0.00000000E+00  0.00000000E+00
  0.00000000E+00  0.00000000E+00  0.00000000E+00
  0.00000000E+00  0.00000000E+00  0.00000000E+00
  0.00000000E+00  0.00000000E+00  0.00000000E+00
  0.00000000E+00  0.00000000E+00  0.00000000E+00
  0.00000000E+00  0.00000000E+00  0.00000000E+00
  0.00000000E+00  0.00000000E+00  0.00000000E+00
