AdsorptionEnergy                        
   1.00000000000000     
    10.1600000000000001    0.0000000000000000    0.0000000000000000
     0.0000000000000000   11.7599999999999998    0.0000000000000000
     0.0000000000000000    0.0000000000000000   15.0000000000000000
   B    Si
    40     1
Direct
 -0.0017381932806194  0.0002678895840213  0.0005459142275160
  0.1638939037769465 -0.0006197638722187 -0.0015117835900567
  0.3352385516231149 -0.0001661405392333 -0.0024997442728150
  0.0803310290739298  0.1250000000000000  0.0043549809004314
  0.2540542146740771  0.1250000000000000 -0.0025785224050887
 -0.0017381932806194  0.2497321104159788  0.0005459142275160
  0.1638939037769465  0.2506197638722185 -0.0015117835900567
  0.3352385516231149  0.2501661405392334 -0.0024997442728150
  0.0807522050165381  0.3745370696396038 -0.0008809708659422
  0.2522568819575255  0.3750010946573125  0.0036597829536815
  0.9981499665695746  0.5005738072249117 -0.0022810813439577
  0.1667090090096862  0.5003041307645961  0.0020507179307399
  0.3352573278967763  0.4998926075106902  0.0057103382923410
  0.0805290773593708  0.6250000000000000  0.0005975116068375
  0.2528407336793274  0.6250000000000000  0.0050172519630339
  0.9981499665695746  0.7494261927750883 -0.0022810813439577
  0.1667090090096862  0.7496958692354039  0.0020507179307399
  0.3352573278967763  0.7501073924893097  0.0057103382923410
  0.0807522050165381  0.8754629303603964 -0.0008809708659422
  0.2522568819575255  0.8749989053426880  0.0036597829536815
  0.4980709140023702 -0.0001543686582511 -0.0024743437138083
  0.6694809706616311 -0.0005823824132012 -0.0015105039474407
  0.8351438367652597  0.0002657200089210  0.0005224037041514
  0.5792849423879018  0.1250000000000000 -0.0026034760816037
  0.7530493225489442  0.1250000000000000  0.0043209963548085
  0.4980709140023702  0.2501543686582510 -0.0024743437138083
  0.6694809706616311  0.2505823824132013 -0.0015105039474407
  0.8351438367652597  0.2497342799910791  0.0005224037041514
  0.5810969762298994  0.3749734746551338  0.0036315438527144
  0.7525771272450494  0.3745107392556006 -0.0010142984304682
  0.4980779353169454  0.4998827719677333  0.0058042354899513
  0.6665855767511312  0.5003021981092843  0.0021851930754903
  0.8351335867188509  0.5005460389631358 -0.0022834904365491
  0.5804977788726614  0.6250000000000000  0.0053310315437577
  0.7527823012111143  0.6250000000000000  0.0008394344715808
  0.4980779353169454  0.7501172280322665  0.0058042354899513
  0.6665855767511312  0.7496978018907157  0.0021851930754903
  0.8351335867188509  0.7494539610368642 -0.0022834904365491
  0.5810969762298994  0.8750265253448667  0.0036315438527144
  0.7525771272450494  0.8754892607443993 -0.0010142984304682
  0.4166474476713127  0.1250000000000000  0.0987429657951475
 
  0.00000000E+00  0.00000000E+00  0.00000000E+00
  0.00000000E+00  0.00000000E+00  0.00000000E+00
  0.00000000E+00  0.00000000E+00  0.00000000E+00
  0.00000000E+00  0.00000000E+00  0.00000000E+00
  0.00000000E+00  0.00000000E+00  0.00000000E+00
  0.00000000E+00  0.00000000E+00  0.00000000E+00
  0.00000000E+00  0.00000000E+00  0.00000000E+00
  0.00000000E+00  0.00000000E+00  0.00000000E+00
  0.00000000E+00  0.00000000E+00  0.00000000E+00
  0.00000000E+00  0.00000000E+00  0.00000000E+00
  0.00000000E+00  0.00000000E+00  0.00000000E+00
  0.00000000E+00  0.00000000E+00  0.00000000E+00
  0.00000000E+00  0.00000000E+00  0.00000000E+00
  0.00000000E+00  0.00000000E+00  0.00000000E+00
  0.00000000E+00  0.00000000E+00  0.00000000E+00
  0.00000000E+00  0.00000000E+00  0.00000000E+00
  0.00000000E+00  0.00000000E+00  0.00000000E+00
  0.00000000E+00  0.00000000E+00  0.00000000E+00
  0.00000000E+00  0.00000000E+00  0.00000000E+00
  0.00000000E+00  0.00000000E+00  0.00000000E+00
  0.00000000E+00  0.00000000E+00  0.00000000E+00
  0.00000000E+00  0.00000000E+00  0.00000000E+00
  0.00000000E+00  0.00000000E+00  0.00000000E+00
  0.00000000E+00  0.00000000E+00  0.00000000E+00
  0.00000000E+00  0.00000000E+00  0.00000000E+00
  0.00000000E+00  0.00000000E+00  0.00000000E+00
  0.00000000E+00  0.00000000E+00  0.00000000E+00
  0.00000000E+00  0.00000000E+00  0.00000000E+00
  0.00000000E+00  0.00000000E+00  0.00000000E+00
  0.00000000E+00  0.00000000E+00  0.00000000E+00
  0.00000000E+00  0.00000000E+00  0.00000000E+00
  0.00000000E+00  0.00000000E+00  0.00000000E+00
  0.00000000E+00  0.00000000E+00  0.00000000E+00
  0.00000000E+00  0.00000000E+00  0.00000000E+00
  0.00000000E+00  0.00000000E+00  0.00000000E+00
  0.00000000E+00  0.00000000E+00  0.00000000E+00
  0.00000000E+00  0.00000000E+00  0.00000000E+00
  0.00000000E+00  0.00000000E+00  0.00000000E+00
  0.00000000E+00  0.00000000E+00  0.00000000E+00
  0.00000000E+00  0.00000000E+00  0.00000000E+00
  0.00000000E+00  0.00000000E+00  0.00000000E+00
