MoleculeAdsorption                      
   1.00000000000000     
    10.1600000000000001    0.0000000000000000    0.0000000000000000
     0.0000000000000000   11.7599999999999998    0.0000000000000000
     0.0000000000000000    0.0000000000000000   15.0000000000000000
   C    O 
     1     1
Direct
  0.0000000000000000  0.0000000000000000  0.0025389052068462
  0.0000000000000000  0.0000000000000000  0.0787610947931526
 
  0.00000000E+00  0.00000000E+00  0.00000000E+00
  0.00000000E+00  0.00000000E+00  0.00000000E+00
