MoleculeAdsorption                      
   1.00000000000000     
    10.1600000000000001    0.0000000000000000    0.0000000000000000
     0.0000000000000000   11.7599999999999998    0.0000000000000000
     0.0000000000000000    0.0000000000000000   15.0000000000000000
   C    O 
     1     2
Direct
 -0.0000039042444830 -0.0000012941284009  0.0000000000000000
  0.8842354072333842  0.0025560116952653  0.0000000000000000
  0.1157584970111026  0.9974252824331363  0.0000000000000000
 
  0.00000000E+00  0.00000000E+00  0.00000000E+00
  0.00000000E+00  0.00000000E+00  0.00000000E+00
  0.00000000E+00  0.00000000E+00  0.00000000E+00
