MoleculeAdsorption                        
   1.00000000000000     
    10.1600000000000001    0.0000000000000000    0.0000000000000000
     0.0000000000000000   11.7599999999999998    0.0000000000000000
     0.0000000000000000    0.0000000000000000   15.0000000000000000
   1 2
Direct
 0.00000   0.00000   0.00000
 -0.11772   0.00259   0.00000
 0.11771  -0.00261   0.00000



