MoleculeAdsorption                      
   1.00000000000000     
    10.1600000000000001    0.0000000000000000    0.0000000000000000
     0.0000000000000000   11.7599999999999998    0.0000000000000000
     0.0000000000000000    0.0000000000000000   15.0000000000000000
   O    H 
     1     2
Direct
 -0.0001570186897872  0.0005188983274677  0.0010794357173840
  0.0954870638121755  0.0029294298242969  0.0002620853942892
  0.9735599548776079  0.0767316718482340  0.0187484788883229
 
  0.00000000E+00  0.00000000E+00  0.00000000E+00
  0.00000000E+00  0.00000000E+00  0.00000000E+00
  0.00000000E+00  0.00000000E+00  0.00000000E+00
