MoleculeAdsorption                      
   1.00000000000000     
    10.1600000000000001    0.0000000000000000    0.0000000000000000
     0.0000000000000000   11.7599999999999998    0.0000000000000000
     0.0000000000000000    0.0000000000000000   15.0000000000000000
   C    O    H 
     1     1     4
Direct
  0.1318526894457991  0.9800893549985646  0.9747182852242866
 -0.0015254814292953  0.0000038990904985  0.0010567327646396
  0.1686369826066547  0.8969888836999990  0.9981685701729625
  0.1988599275346654  0.0475924088843775  0.9982289320864083
  0.1328529779318818  0.9799562605462250  0.9015879456119933
 -0.0052970960897062  0.0007891927803351  0.0657695341397007
 
  0.00000000E+00  0.00000000E+00  0.00000000E+00
  0.00000000E+00  0.00000000E+00  0.00000000E+00
  0.00000000E+00  0.00000000E+00  0.00000000E+00
  0.00000000E+00  0.00000000E+00  0.00000000E+00
  0.00000000E+00  0.00000000E+00  0.00000000E+00
  0.00000000E+00  0.00000000E+00  0.00000000E+00
