MoleculeAdsorption                        
   1.00000000000000     
    10.1600000000000001    0.0000000000000000    0.0000000000000000
     0.0000000000000000   11.7599999999999998    0.0000000000000000
     0.0000000000000000    0.0000000000000000   15.0000000000000000
   1 1 4
Direct
 0.13033  -0.01971  -0.02564
 0.00000   0.00000   0.00000
 0.16408  -0.10383  -0.00074
 0.19515   0.04950  -0.00074
 0.13582  -0.02054  -0.09951
 0.00000   0.00000   0.06616

